JOBS = 1..3;
MACHINES = 1..5;
SPEED = 2;
time = array3d(JOBS,MACHINES,1..SPEED,[255,46,230,41,95,17,115,20,150,27,50,9,68,12,156,28,126,22,152,27,105,19,84,15,96,17,125,22,48,8]);
energy = array3d(JOBS,MACHINES,1..SPEED,[7,63,10,66,38,84,31,81,22,76,60,91,50,88,21,75,28,80,21,76,34,82,43,86,38,84,28,80,61,92]);
precedence = array2d(JOBS,MACHINES,[2,3,1,4,0,4,2,3,1,0,0,2,1,4,3]);
ME = 1;
TE = 121;
st_old = array2d(JOBS,MACHINES,[122,377,27,435,0,405,309,377,183,31,0,218,122,310,302]);
SpeedScaling = array2d(JOBS,MACHINES,[1,2,1,2,2,1,1,2,1,1,1,1,1,1,2]);
